30
5
3005005
0
0
54 55 57 49 52 
1
0
37 29 37 35 37 
2
0
6 8 10 5 3 
3
0
88 90 90 93 88 
4
0
73 77 74 68 69 
5
0
68 64 59 66 64 
6
0
9 9 12 7 12 
7
0
12 17 16 16 15 
8
0
78 80 77 77 78 
9
0
16 8 13 16 7 
10
0
15 17 13 12 11 
11
0
60 55 55 55 52 
12
0
29 24 18 23 25 
13
0
21 17 22 21 22 
14
0
88 91 95 97 97 
15
0
77 76 70 73 79 
16
0
77 78 79 71 70 
17
0
62 58 61 57 63 
18
0
43 50 42 43 47 
19
0
25 25 26 23 29 
20
0
46 47 41 42 42 
21
0
9 8 17 11 14 
22
0
63 56 61 58 59 
23
0
67 70 70 76 68 
24
0
76 67 70 67 73 
25
0
13 8 10 15 16 
26
0
68 64 64 68 71 
27
0
6 9 7 12 13 
28
0
54 48 55 48 51 
29
0
40 40 37 35 41 
